benchmarks/VRPTW/TSPTW/ins/n100w80.001.txt


!! n100w80.001    80.15 858


CUST NO.   XCOORD.   YCOORD.    DEMAND   READY TIME   DUE DATE   SERVICE TIME


    1      36.00      36.00       0.00       0.00     887.00       0.00
    2      25.00      19.00       0.00     450.00     485.00       0.00
    3      42.00      29.00       0.00     590.00     648.00       0.00
    4      27.00       2.00       0.00     116.00     203.00       0.00
    5      43.00      20.00       0.00      50.00     131.00       0.00
    6      14.00       8.00       0.00     168.00     259.00       0.00
    7      30.00      48.00       0.00       0.00      70.00       0.00
    8      16.00      28.00       0.00     301.00     371.00       0.00
    9      22.00      39.00       0.00     446.00     535.00       0.00
   10      11.00       4.00       0.00     154.00     244.00       0.00
   11      45.00       8.00       0.00     273.00     419.00       0.00
   12      31.00      42.00       0.00       0.00      85.00       0.00
   13       4.00      46.00       0.00     534.00     625.00       0.00
   14      15.00      37.00       0.00     520.00     608.00       0.00
   15      41.00       1.00       0.00     308.00     440.00       0.00
   16      32.00      16.00       0.00     313.00     352.00       0.00
   17      48.00      30.00       0.00      19.00     100.00       0.00
   18      45.00      44.00       0.00      18.00     107.00       0.00
   19      48.00      11.00       0.00     311.00     426.00       0.00
   20       5.00       3.00       0.00     186.00     201.00       0.00
   21       4.00      28.00       0.00     229.00     250.00       0.00
   22      19.00       1.00       0.00     376.00     465.00       0.00
   23       8.00      45.00       0.00     527.00     642.00       0.00
   24      47.00      14.00       0.00     316.00     357.00       0.00
   25      28.00      36.00       0.00     457.00     523.00       0.00
   26      33.00      11.00       0.00      85.00     135.00       0.00
   27       6.00      41.00       0.00     517.00     570.00       0.00
   28      41.00      27.00       0.00      52.00     145.00       0.00
   29      34.00       7.00       0.00     263.00     356.00       0.00
   30      36.00      22.00       0.00      70.00     121.00       0.00
   31      49.00      45.00       0.00     603.00     688.00       0.00
   32      19.00       7.00       0.00      96.00     205.00       0.00
   33      41.00       5.00       0.00     288.00     424.00       0.00
   34      43.00       6.00       0.00     280.00     352.00       0.00
   35      35.00      50.00       0.00      25.00     110.00       0.00
   36      33.00      49.00       0.00       0.00      71.00       0.00
   37      19.00      32.00       0.00     213.00     329.00       0.00
   38      43.00      10.00       0.00     301.00     402.00       0.00
   39      16.00       7.00       0.00     161.00     269.00       0.00
   40       4.00      35.00       0.00     502.00     633.00       0.00
   41      21.00      27.00       0.00     534.00     606.00       0.00
   42       5.00      26.00       0.00     206.00     321.00       0.00
   43       8.00      11.00       0.00     195.00     262.00       0.00
   44      24.00      18.00       0.00     272.00     372.00       0.00
   45      15.00      27.00       0.00     215.00     302.00       0.00
   46      22.00      29.00       0.00     275.00     350.00       0.00
   47      38.00      41.00       0.00       0.00      11.00       0.00
   48      50.00      12.00       0.00     305.00     415.00       0.00
   49       6.00       3.00       0.00     170.00     255.00       0.00
   50       4.00      34.00       0.00     180.00     279.00       0.00
   51      46.00      36.00       0.00      39.00     127.00       0.00
   52      42.00      16.00       0.00     636.00     717.00       0.00
   53       3.00      10.00       0.00     435.00     469.00       0.00
   54       8.00      19.00       0.00     252.00     274.00       0.00
   55      17.00      29.00       0.00     255.00     294.00       0.00
   56      43.00      42.00       0.00      23.00      48.00       0.00
   57      29.00       9.00       0.00      66.00     174.00       0.00
   58      20.00      24.00       0.00     265.00     350.00       0.00
   59      17.00      48.00       0.00     776.00     865.00       0.00
   60       4.00      25.00       0.00     233.00     276.00       0.00
   61      28.00       9.00       0.00     137.00     183.00       0.00
   62      27.00      12.00       0.00     106.00     164.00       0.00
   63      18.00      47.00       0.00     505.00     580.00       0.00
   64       0.00      40.00       0.00     513.00     601.00       0.00
   65      10.00      22.00       0.00     191.00     260.00       0.00
   66      27.00      47.00       0.00       0.00      80.00       0.00
   67      23.00      43.00       0.00     501.00     545.00       0.00
   68      49.00      47.00       0.00       3.00      69.00       0.00
   69      47.00      39.00       0.00      45.00      92.00       0.00
   70      45.00       2.00       0.00     320.00     394.00       0.00
   71      20.00      32.00       0.00     228.00     370.00       0.00
   72      10.00       0.00       0.00     123.00     252.00       0.00
   73       5.00      31.00       0.00     193.00     330.00       0.00
   74      32.00      22.00       0.00     105.00     188.00       0.00
   75      49.00      15.00       0.00     340.00     402.00       0.00
   76      40.00      24.00       0.00      30.00     123.00       0.00
   77      23.00      10.00       0.00      78.00     222.00       0.00
   78      11.00      16.00       0.00     168.00     235.00       0.00
   79      49.00       0.00       0.00     349.00     450.00       0.00
   80      32.00      15.00       0.00      59.00     150.00       0.00
   81      42.00      13.00       0.00     335.00     451.00       0.00
   82      21.00      10.00       0.00     148.00     206.00       0.00
   83       5.00      20.00       0.00     170.00     253.00       0.00
   84       5.00       4.00       0.00     673.00     787.00       0.00
   85      15.00       4.00       0.00     127.00     203.00       0.00
   86      47.00      27.00       0.00      37.00     123.00       0.00
   87      34.00      18.00       0.00     103.00     160.00       0.00
   88      35.00      43.00       0.00       0.00      43.00       0.00
   89      23.00      47.00       0.00     465.00     555.00       0.00
   90       3.00      29.00       0.00     232.00     310.00       0.00
   91      19.00       1.00       0.00     170.00     228.00       0.00
   92      29.00      10.00       0.00     130.00     153.00       0.00
   93      26.00      41.00       0.00     469.00     511.00       0.00
   94      48.00      30.00       0.00      15.00     106.00       0.00
   95      39.00      18.00       0.00      93.00     148.00       0.00
   96      44.00      29.00       0.00      34.00     131.00       0.00
   97      13.00      34.00       0.00     698.00     755.00       0.00
   98       5.00      27.00       0.00     198.00     284.00       0.00
   99      32.00      50.00       0.00     624.00     760.00       0.00
  100      49.00      13.00       0.00     291.00     411.00       0.00
  101      44.00      46.00       0.00     742.00     822.00       0.00
  999       0.00       0.00       0.00       0.00       0.00       0.00
