benchmarks/VRPTW/TSPTW/solution/n100w80.001.txt.solution
1 47 88 12 66 7 36 35 56 18 68 69 51 17 94 86 96 28 76 5 95 30 74 87 80 26 57 61 92 62 77 82 32 4 91 85 39 6 10 72 20 49 43 78 83 60 42 98 21 50 73 90 54 65 45 55 8 37 71 46 58 44 16 29 33 34 24 75 100 48 19 81 38 11 79 70 15 22 53 2 25 93 9 67 89 63 23 13 64 40 27 14 41 31 99 3 52 84 97 59 101 
670
